Version identifier: 22.1.0.0 | 2022-03-09 | 1a383f8ce
CPXPARAM_Threads                                 1
CPXPARAM_MIP_Strategy_VariableSelect             3
CPXPARAM_TimeLimit                               599.99758597899995
Tried aggregator 1 time.
MIP Presolve eliminated 13 rows and 0 columns.
MIP Presolve modified 1 coefficients.
Reduced MIP has 623 rows, 2448 columns, and 26096 nonzeros.
Reduced MIP has 2448 binaries, 0 generals, 0 SOSs, and 0 indicators.
Presolve time = 0.02 sec. (13.22 ticks)
Probing time = 0.00 sec. (3.93 ticks)
Tried aggregator 1 time.
Detecting symmetries...
Reduced MIP has 623 rows, 2448 columns, and 26096 nonzeros.
Reduced MIP has 2448 binaries, 0 generals, 0 SOSs, and 0 indicators.
Presolve time = 0.02 sec. (15.88 ticks)
Probing time = 0.00 sec. (3.93 ticks)
Clique table members: 403.
MIP emphasis: balance optimality and feasibility.
MIP search method: dynamic search.
Parallel mode: none, using 1 thread.
Root relaxation solution time = 0.03 sec. (30.01 ticks)

        Nodes                                         Cuts/
   Node  Left     Objective  IInf  Best Integer    Best Bound    ItCnt     Gap

      0     0        0.0000   330                      0.0000      600         
*     0+    0                            0.0000        0.0000             0.00%
      0     0        cutoff              0.0000        0.0000      600    0.00%
Elapsed time = 0.14 sec. (123.56 ticks, tree = 0.01 MB, solutions = 1)

Root node processing (before b&c):
  Real time             =    0.14 sec. (123.64 ticks)
Sequential b&c:
  Real time             =    0.00 sec. (0.00 ticks)
                          ------------
Total (root+branch&cut) =    0.14 sec. (123.64 ticks)
Version identifier: 22.1.0.0 | 2022-03-09 | 1a383f8ce
CPXPARAM_Threads                                 1
CPXPARAM_MIP_Strategy_VariableSelect             3
CPXPARAM_TimeLimit                               599.84187942599999
Tried aggregator 1 time.
MIP Presolve eliminated 13 rows and 0 columns.
MIP Presolve modified 1 coefficients.
Reduced MIP has 917 rows, 3624 columns, and 38934 nonzeros.
Reduced MIP has 3624 binaries, 0 generals, 0 SOSs, and 0 indicators.
Presolve time = 0.02 sec. (19.38 ticks)
Probing time = 0.00 sec. (4.72 ticks)
Tried aggregator 1 time.
Detecting symmetries...
Reduced MIP has 917 rows, 3624 columns, and 38934 nonzeros.
Reduced MIP has 3624 binaries, 0 generals, 0 SOSs, and 0 indicators.
Presolve time = 0.03 sec. (23.52 ticks)
Probing time = 0.00 sec. (4.72 ticks)
Clique table members: 599.
MIP emphasis: balance optimality and feasibility.
MIP search method: dynamic search.
Parallel mode: none, using 1 thread.
Root relaxation solution time = 0.17 sec. (179.14 ticks)

        Nodes                                         Cuts/
   Node  Left     Objective  IInf  Best Integer    Best Bound    ItCnt     Gap

      0     0        0.0000   597                      0.0000     1496         
*     0+    0                            0.0000        0.0000             0.00%
      0     0        cutoff              0.0000        0.0000     1496    0.00%
Elapsed time = 0.74 sec. (693.04 ticks, tree = 0.01 MB, solutions = 1)

Root node processing (before b&c):
  Real time             =    0.74 sec. (693.15 ticks)
Sequential b&c:
  Real time             =    0.00 sec. (0.00 ticks)
                          ------------
Total (root+branch&cut) =    0.74 sec. (693.15 ticks)
Version identifier: 22.1.0.0 | 2022-03-09 | 1a383f8ce
CPXPARAM_Threads                                 1
CPXPARAM_MIP_Strategy_VariableSelect             3
CPXPARAM_TimeLimit                               599.08248565099996
Tried aggregator 1 time.
MIP Presolve eliminated 13 rows and 0 columns.
MIP Presolve modified 1 coefficients.
Reduced MIP has 1067 rows, 4224 columns, and 45484 nonzeros.
Reduced MIP has 4224 binaries, 0 generals, 0 SOSs, and 0 indicators.
Presolve time = 0.03 sec. (22.50 ticks)
Probing time = 0.01 sec. (5.07 ticks)
Tried aggregator 1 time.
Detecting symmetries...
Reduced MIP has 1067 rows, 4224 columns, and 45484 nonzeros.
Reduced MIP has 4224 binaries, 0 generals, 0 SOSs, and 0 indicators.
Presolve time = 0.03 sec. (27.43 ticks)
Probing time = 0.01 sec. (5.07 ticks)
Clique table members: 699.
MIP emphasis: balance optimality and feasibility.
MIP search method: dynamic search.
Parallel mode: none, using 1 thread.
Root relaxation solution time = 0.25 sec. (266.81 ticks)

        Nodes                                         Cuts/
   Node  Left     Objective  IInf  Best Integer    Best Bound    ItCnt     Gap

      0     0        0.0000   709                      0.0000     1840         
*     0+    0                            0.0000        0.0000             0.00%
      0     0        cutoff              0.0000        0.0000     1840    0.00%
Elapsed time = 1.61 sec. (1725.79 ticks, tree = 0.01 MB, solutions = 1)

Root node processing (before b&c):
  Real time             =    1.61 sec. (1725.91 ticks)
Sequential b&c:
  Real time             =    0.00 sec. (0.00 ticks)
                          ------------
Total (root+branch&cut) =    1.61 sec. (1725.91 ticks)
Version identifier: 22.1.0.0 | 2022-03-09 | 1a383f8ce
CPXPARAM_Threads                                 1
CPXPARAM_MIP_Strategy_VariableSelect             3
CPXPARAM_TimeLimit                               597.44928482199998
Tried aggregator 1 time.
MIP Presolve eliminated 13 rows and 0 columns.
MIP Presolve modified 1 coefficients.
Reduced MIP has 1139 rows, 4512 columns, and 48628 nonzeros.
Reduced MIP has 4512 binaries, 0 generals, 0 SOSs, and 0 indicators.
Presolve time = 0.03 sec. (24.00 ticks)
Probing time = 0.01 sec. (5.20 ticks)
Tried aggregator 1 time.
Detecting symmetries...
Reduced MIP has 1139 rows, 4512 columns, and 48628 nonzeros.
Reduced MIP has 4512 binaries, 0 generals, 0 SOSs, and 0 indicators.
Presolve time = 0.03 sec. (29.29 ticks)
Probing time = 0.01 sec. (5.20 ticks)
Clique table members: 747.
MIP emphasis: balance optimality and feasibility.
MIP search method: dynamic search.
Parallel mode: none, using 1 thread.
Root relaxation solution time = 0.58 sec. (640.22 ticks)

        Nodes                                         Cuts/
   Node  Left     Objective  IInf  Best Integer    Best Bound    ItCnt     Gap

      0     0        0.0000   796                      0.0000     3144         
*     0+    0                            0.0000        0.0000             0.00%
      0     0        cutoff              0.0000        0.0000     3144    0.00%
Elapsed time = 2.46 sec. (2599.30 ticks, tree = 0.01 MB, solutions = 1)

Root node processing (before b&c):
  Real time             =    2.46 sec. (2599.43 ticks)
Sequential b&c:
  Real time             =    0.00 sec. (0.00 ticks)
                          ------------
Total (root+branch&cut) =    2.46 sec. (2599.43 ticks)
Version identifier: 22.1.0.0 | 2022-03-09 | 1a383f8ce
CPXPARAM_Threads                                 1
CPXPARAM_MIP_Strategy_VariableSelect             3
CPXPARAM_TimeLimit                               594.96445057100004
Tried aggregator 1 time.
MIP Presolve eliminated 13 rows and 0 columns.
MIP Presolve modified 1 coefficients.
Reduced MIP has 1175 rows, 4656 columns, and 50200 nonzeros.
Reduced MIP has 4656 binaries, 0 generals, 0 SOSs, and 0 indicators.
Presolve time = 0.03 sec. (24.76 ticks)
Probing time = 0.01 sec. (5.26 ticks)
Tried aggregator 1 time.
Detecting symmetries...
Reduced MIP has 1175 rows, 4656 columns, and 50200 nonzeros.
Reduced MIP has 4656 binaries, 0 generals, 0 SOSs, and 0 indicators.
Presolve time = 0.03 sec. (30.23 ticks)
Probing time = 0.01 sec. (5.26 ticks)
Clique table members: 771.
MIP emphasis: balance optimality and feasibility.
MIP search method: dynamic search.
Parallel mode: none, using 1 thread.
Root relaxation solution time = 0.49 sec. (529.74 ticks)

        Nodes                                         Cuts/
   Node  Left     Objective  IInf  Best Integer    Best Bound    ItCnt     Gap

      0     0        0.0000   847                      0.0000     2745         
      0     0        0.0000   161                     Cuts: 2     3016         
      0     0        0.0000   328                    Cuts: 28     4218         
      0     2        0.0000   144                      0.0000     4218         
Elapsed time = 9.69 sec. (10453.63 ticks, tree = 0.01 MB, solutions = 0)
      1     3        0.0000   357                      0.0000     9299         
      2     4        0.0000   373                      0.0000    12010         
      3     4        0.0000   414                      0.0000    14286         
      4     5        0.0000   404                      0.0000    14380         
      5     6        0.0000   405                      0.0000    15251         
      7     7        0.0000   387                      0.0000    16277         
      9     8        0.0000   677                      0.0000    16593         
     10     8        0.0000   481                      0.0000    18735         
     13     9        0.0000   702                      0.0000    19366         
     17    13        0.0000   416                      0.0000    23275         
Elapsed time = 15.76 sec. (17022.07 ticks, tree = 0.10 MB, solutions = 0)
     21    15        0.0000   438                      0.0000    24812         
     28    20        0.0000   438                      0.0000    27041         
     37    23        0.0000   434                      0.0000    30891         
     40    25        0.0000   415                      0.0000    32039         
     49    29        0.0000   399                      0.0000    36082         
     54    32        0.0000   439                      0.0000    39944         
     60    36        0.0000   369                      0.0000    45935         
     67    42        0.0000   258                      0.0000    49269         
     76    46        0.0000   173                      0.0000    56370         
     85    50        0.0000   178                      0.0000    64969         
Elapsed time = 26.97 sec. (27819.44 ticks, tree = 0.51 MB, solutions = 0)
     94    58        0.0000   161                      0.0000    69355         
    101    60        0.0000   144                      0.0000    77206         
    111    64    infeasible                            0.0000    81997         
    124    66        0.0000   111                      0.0000    86674         
    135    69    infeasible                            0.0000    91761         
    145    70        0.0000    66                      0.0000    99275         
    155    70    infeasible                            0.0000   106526         
    166    75        0.0000    96                      0.0000   111068         
    179    78        0.0000   115                      0.0000   115920         
    194    77    infeasible                            0.0000   122649         
Elapsed time = 38.39 sec. (37980.45 ticks, tree = 0.82 MB, solutions = 0)
    206    81    infeasible                            0.0000   129497         
    217    84    infeasible                            0.0000   137605         
    228    85        0.0000   116                      0.0000   143572         
    240    86        0.0000   113                      0.0000   150043         
    251    88    infeasible                            0.0000   156633         
    261    89    infeasible                            0.0000   162809         
    271    91        0.0000    76                      0.0000   168603         
    284    98        0.0000    78                      0.0000   172170         
    298    98        0.0000   101                      0.0000   178590         
    309    97    infeasible                            0.0000   186932         
Elapsed time = 49.79 sec. (48111.01 ticks, tree = 1.04 MB, solutions = 0)
    319   101    infeasible                            0.0000   191998         
    333   101        0.0000   105                      0.0000   197694         
    346   104        0.0000    70                      0.0000   202909         
    365   105        0.0000    68                      0.0000   206429         
    379   109        0.0000    66                      0.0000   209441         
    393   115        0.0000    70                      0.0000   212448         
    406   110        0.0000    91                      0.0000   220706         
    420   116        0.0000   120                      0.0000   225154         
    436   120        0.0000    70                      0.0000   227665         
    451   125        0.0000    86                      0.0000   230940         
Elapsed time = 60.92 sec. (58120.50 ticks, tree = 1.34 MB, solutions = 0)
    471   123        0.0000    72                      0.0000   236904         
    490   122        0.0000    93                      0.0000   240720         
    509   121        0.0000    80                      0.0000   245731         
    524   126        0.0000    76                      0.0000   248181         
    545   127        0.0000    95                      0.0000   250936         
    560   128    infeasible                            0.0000   256059         
    571   130        0.0000    72                      0.0000   260891         
    582   135        0.0000   120                      0.0000   265654         
    595   140    infeasible                            0.0000   269406         
    607   144        0.0000   109                      0.0000   274585         
Elapsed time = 72.20 sec. (68258.82 ticks, tree = 1.56 MB, solutions = 0)
    624   146        0.0000   118                      0.0000   279427         
    641   144    infeasible                            0.0000   283593         
    652   145    infeasible                            0.0000   289329         
    663   150        0.0000   100                      0.0000   294288         
    677   157        0.0000   129                      0.0000   297712         
    690   160        0.0000    72                      0.0000   303859         
    703   160        0.0000    68                      0.0000   310327         
    716   161        0.0000    72                      0.0000   317631         
    730   163        0.0000   115                      0.0000   323074         
    743   168        0.0000   101                      0.0000   327197         
Elapsed time = 83.45 sec. (78251.25 ticks, tree = 1.81 MB, solutions = 0)
    758   171        0.0000   131                      0.0000   331870         
    771   176        0.0000    92                      0.0000   335950         
    782   181        0.0000    97                      0.0000   340801         
    797   184        0.0000    82                      0.0000   345575         
    808   189        0.0000    84                      0.0000   349274         
    820   193        0.0000    78                      0.0000   354087         
    834   193    infeasible                            0.0000   361499         
    850   197        0.0000    68                      0.0000   364302         
    865   198    infeasible                            0.0000   370915         
    876   202        0.0000    84                      0.0000   375562         
Elapsed time = 94.57 sec. (88201.41 ticks, tree = 2.21 MB, solutions = 0)
    890   203        0.0000    66                      0.0000   380943         
    906   205        0.0000    70                      0.0000   386194         
    923   206        0.0000   109                      0.0000   391459         
    937   204        0.0000    86                      0.0000   396145         
    951   204        0.0000    79                      0.0000   402037         
    962   208        0.0000    70                      0.0000   407003         
    974   215        0.0000    83                      0.0000   410584         
    988   215        0.0000   108                      0.0000   416327         
   1000   216        0.0000    70                      0.0000   421888         
   1015   221    infeasible                            0.0000   425859         
Elapsed time = 105.67 sec. (98079.16 ticks, tree = 2.43 MB, solutions = 0)
   1030   220        0.0000    76                      0.0000   432451         
   1043   219        0.0000   106                      0.0000   438071         
   1062   221        0.0000    95                      0.0000   441746         
   1077   222        0.0000   119                      0.0000   446280         
   1088   225        0.0000   108                      0.0000   452447         
   1102   229        0.0000   108                      0.0000   456458         
   1124   230        0.0000   120                      0.0000   459367         
   1140   232        0.0000    90                      0.0000   464468         
   1156   232        0.0000   101                      0.0000   469437         
   1219   232    infeasible                            0.0000   491724         
Elapsed time = 120.04 sec. (110871.13 ticks, tree = 2.55 MB, solutions = 0)
   1273   230    infeasible                            0.0000   515246         
   1328   236        0.0000    75                      0.0000   536311         
   1387   234        0.0000   117                      0.0000   559693         
   1435   250        0.0000   113                      0.0000   580505         
   1487   259        0.0000   117                      0.0000   601465         
   1545   265        0.0000    78                      0.0000   624179         
   1590   270        0.0000    98                      0.0000   648091         
   1643   273        0.0000   101                      0.0000   671348         
   1693   278    infeasible                            0.0000   694828         
   1749   280        0.0000    70                      0.0000   717634         
Elapsed time = 163.84 sec. (149436.10 ticks, tree = 3.09 MB, solutions = 0)
   1810   279        0.0000    72                      0.0000   739061         
   1860   285        0.0000   122                      0.0000   761925         
   1910   289        0.0000    97                      0.0000   786744         
   1962   305        0.0000   116                      0.0000   804506         

Performing restart 1

Repeating presolve.
Tried aggregator 1 time.
MIP Presolve eliminated 0 rows and 10 columns.
MIP Presolve modified 13794 coefficients.
Reduced MIP has 1175 rows, 4646 columns, and 46599 nonzeros.
Reduced MIP has 4646 binaries, 0 generals, 0 SOSs, and 0 indicators.
Presolve time = 0.04 sec. (41.98 ticks)
Tried aggregator 1 time.
MIP Presolve eliminated 2 rows and 376 columns.
Reduced MIP has 1173 rows, 4270 columns, and 41202 nonzeros.
Reduced MIP has 4270 binaries, 0 generals, 0 SOSs, and 0 indicators.
Presolve time = 0.02 sec. (20.31 ticks)
Tried aggregator 1 time.
Reduced MIP has 1173 rows, 4270 columns, and 41202 nonzeros.
Reduced MIP has 4270 binaries, 0 generals, 0 SOSs, and 0 indicators.
Presolve time = 0.03 sec. (26.00 ticks)
Represolve time = 0.37 sec. (250.43 ticks)
   2000     0        0.0000   280                     Cuts: 2   824391         
   2000     0        0.0000   134                     Cuts: 3   825091         
   2000     0        0.0000   236                    Cuts: 26   827191         
   2000     0        0.0000   135                 ZeroHalf: 3   827783         
   2000     0        0.0000   470                    Cuts: 65   829718         
   2000     2        0.0000    91                      0.0000   829718         
   2009    11        0.0000   165                      0.0000   844188         
   2024    26        0.0000   388                      0.0000   861050         
   2048    50        0.0000   414                      0.0000   873824         
   2065    66        0.0000   276                      0.0000   889287         
   2086    67        0.0000   341                      0.0000   915374         
Elapsed time = 224.30 sec. (208448.71 ticks, tree = 0.17 MB, solutions = 0)
   2112    71        0.0000   245                      0.0000   944850         
   2152    71        0.0000   243                      0.0000   982857         
   2194    73        0.0000   169                      0.0000  1016835         
   2213    92        0.0000   346                      0.0000  1042579         
   2235   114        0.0000   353                      0.0000  1065553         
   2258   137        0.0000   387                      0.0000  1088172         
   2270   149        0.0000   345                      0.0000  1111292         
   2288   167        0.0000   299                      0.0000  1134510         
   2298   176        0.0000   182                      0.0000  1157714         
   2324   196        0.0000   144                      0.0000  1182863         
Elapsed time = 266.80 sec. (247881.21 ticks, tree = 1.55 MB, solutions = 0)
   2352   208    infeasible                            0.0000  1216865         
   2376   215        0.0000   196                      0.0000  1251528         
   2404   237        0.0000   175                      0.0000  1277601         
   2451   238        0.0000   119                      0.0000  1312278         
   2484   234    infeasible                            0.0000  1355282         
   2520   236        0.0000   270                      0.0000  1391003         
   2544   257        0.0000   429                      0.0000  1410903         
   2567   280        0.0000   215                      0.0000  1436093         
   2590   303        0.0000   221                      0.0000  1461824         
   2614   327        0.0000   391                      0.0000  1483996         
Elapsed time = 309.64 sec. (286917.59 ticks, tree = 3.00 MB, solutions = 0)
   2643   347        0.0000   173                      0.0000  1505288         
   2682   350    infeasible                            0.0000  1551550         
   2718   352        0.0000   190                      0.0000  1604881         
   2752   354        0.0000   130                      0.0000  1666271         
   2793   355        0.0000   188                      0.0000  1720256         
   2833   365        0.0000   247                      0.0000  1760530         
   2879   363    infeasible                            0.0000  1807230         
   2922   363        0.0000   154                      0.0000  1856716         
   2963   368        0.0000   145                      0.0000  1911959         
   3000   363    infeasible                            0.0000  1972948         
Elapsed time = 380.20 sec. (351559.22 ticks, tree = 3.43 MB, solutions = 0)
   3045   360    infeasible                            0.0000  2018081         
   3082   367        0.0000   213                      0.0000  2049021         
   3116   379        0.0000   235                      0.0000  2081352         
   3146   395        0.0000   188                      0.0000  2121502         
   3182   406        0.0000   195                      0.0000  2164281         
   3225   413    infeasible                            0.0000  2204774         
   3271   415        0.0000   124                      0.0000  2252065         
   3322   414    infeasible                            0.0000  2292297         
   3357   431        0.0000   200                      0.0000  2332306         
   3395   435        0.0000   213                      0.0000  2380001         
Elapsed time = 426.21 sec. (390455.26 ticks, tree = 4.22 MB, solutions = 0)
   3433   439        0.0000   178                      0.0000  2415939         
   3468   447        0.0000   212                      0.0000  2448818         

Performing restart 2

Repeating presolve.
Tried aggregator 1 time.
Reduced MIP has 1173 rows, 4270 columns, and 41202 nonzeros.
Reduced MIP has 4270 binaries, 0 generals, 0 SOSs, and 0 indicators.
Presolve time = 0.02 sec. (19.90 ticks)
Tried aggregator 1 time.
Reduced MIP has 1173 rows, 4270 columns, and 41202 nonzeros.
Reduced MIP has 4270 binaries, 0 generals, 0 SOSs, and 0 indicators.
Presolve time = 0.03 sec. (26.00 ticks)
Represolve time = 0.47 sec. (225.78 ticks)
   3500     0        0.0000   207                 ZeroHalf: 1  2486374         
   3500     0        0.0000   329                   Cuts: 153  2487627         
   3500     2        0.0000    84                      0.0000  2487627         
   3509    11        0.0000   219                      0.0000  2501171         
   3526    28        0.0000   390                      0.0000  2514195         
   3540    40        0.0000   231                      0.0000  2537720         
   3550    46        0.0000   263                      0.0000  2551543         
   3565    61        0.0000   377                      0.0000  2564713         
   3585    81        0.0000   352                      0.0000  2579453         
   3603    99        0.0000   278                      0.0000  2596324         
Elapsed time = 477.69 sec. (439441.92 ticks, tree = 0.21 MB, solutions = 0)
   3625   121        0.0000   349                      0.0000  2615023         
   3646   142        0.0000   290                      0.0000  2641503         
   3660   149        0.0000   310                      0.0000  2654003         
   3680   155    infeasible                            0.0000  2678572         
   3702   163        0.0000   331                      0.0000  2700882         
   3725   170        0.0000   345                      0.0000  2721486         
   3746   180        0.0000   338                      0.0000  2740783         
   3762   191        0.0000   271                      0.0000  2757124         
   3785   214        0.0000   341                      0.0000  2776546         
   3807   236        0.0000   271                      0.0000  2799093         
Elapsed time = 520.91 sec. (479851.97 ticks, tree = 0.47 MB, solutions = 0)
   3833   260        0.0000   339                      0.0000  2823022         
   3854   273        0.0000   300                      0.0000  2842982         
   3880   295        0.0000   293                      0.0000  2867953         
   3910   315        0.0000   188                      0.0000  2903127         
   3953   329        0.0000   130                      0.0000  2948392         
   3995   340        0.0000   152                      0.0000  2990269         
   4043   346        0.0000   146                      0.0000  3032838         
   4099   349        0.0000   173                      0.0000  3071908         
   4151   349        0.0000   148                      0.0000  3108133         
   4198   356    infeasible                            0.0000  3146687         
Elapsed time = 565.74 sec. (519000.23 ticks, tree = 0.71 MB, solutions = 0)
   4258   352        0.0000   155                      0.0000  3187083         
   4320   350        0.0000   151                      0.0000  3224599         
   4385   355        0.0000   157                      0.0000  3266014         
   4439   366        0.0000   121                      0.0000  3305160         
   4498   372        0.0000   147                      0.0000  3345181         
   4563   380        0.0000   100                      0.0000  3385485         

Clique cuts applied:  6
Zero-half cuts applied:  14
Gomory fractional cuts applied:  3

Root node processing (before b&c):
  Real time             =    9.64 sec. (10413.75 ticks)
Sequential b&c:
  Real time             =  585.32 sec. (533593.86 ticks)
                          ------------
Total (root+branch&cut) =  594.97 sec. (544007.61 ticks)
Primal:	188
Dual:	200
Status:	Feasible
Time:	600.022
Sequence:
	14
	6
	6
